; Auto-generated by kdrag_extract.py. DO NOT EDIT
(assert (forall ((x (_ BitVec 8)) (y (_ BitVec 8))) (= (bvadd x y) (bvadd y x))))
(assert (forall ((x (_ BitVec 8)) (y (_ BitVec 8)) (z (_ BitVec 8)))
  (= (bvadd x y z) (bvadd x y z))))
(assert (forall ((x (_ BitVec 8))) (= (bvadd x #x00) x)))
(assert (forall ((x (_ BitVec 8))) (= #x00 (bvadd x (bvneg x)))))
(assert (forall ((x (_ BitVec 8))) (= #x00 (bvsub x x))))
(assert (forall ((x (_ BitVec 8)) (y (_ BitVec 8))) (= (bvsub x y) (bvadd x (bvneg y)))))
(assert (forall ((x (_ BitVec 8)) (y (_ BitVec 8))) (= (bvmul x y) (bvmul y x))))
(assert (forall ((x (_ BitVec 8)) (y (_ BitVec 8)) (z (_ BitVec 8)))
  (= (bvmul x y z) (bvmul x y z))))
(assert (forall ((x (_ BitVec 8))) (= (bvmul x #x01) x)))
(assert (forall ((x (_ BitVec 8))) (= #x00 (bvmul x #x00))))
(assert (forall ((x (_ BitVec 8)) (y (_ BitVec 8))) (= (bvand x y) (bvand y x))))
(assert (forall ((x (_ BitVec 8)) (y (_ BitVec 8)) (z (_ BitVec 8)))
  (= (bvand x y z) (bvand x y z))))
(assert (forall ((x (_ BitVec 8))) (= (bvand x #xff) x)))
(assert (forall ((x (_ BitVec 8))) (= #x00 (bvand x #x00))))
(assert (forall ((x (_ BitVec 8)) (y (_ BitVec 8))) (= (bvor x y) (bvor y x))))
(assert (forall ((x (_ BitVec 8)) (y (_ BitVec 8)) (z (_ BitVec 8)))
  (= (bvor x y z) (bvor x y z))))
(assert (forall ((x (_ BitVec 8))) (= (bvor x #x00) x)))
(assert (forall ((x (_ BitVec 8))) (= #xff (bvor x (bvnot x)))))
(assert (forall ((x (_ BitVec 8)) (y (_ BitVec 8))) (= (bvxor x y) (bvxor y x))))
(assert (forall ((x (_ BitVec 8)) (y (_ BitVec 8)) (z (_ BitVec 8)))
  (= (bvxor x y z) (bvxor x y z))))
(assert (forall ((x (_ BitVec 8))) (= (bvxor x #x00) x)))
(assert (forall ((x (_ BitVec 8))) (= #x00 (bvxor x x))))
(assert (forall ((x (_ BitVec 8))) (= (bvshl x #x00) x)))
(assert (forall ((x (_ BitVec 8))) (= (bvlshr x #x00) x)))
(assert (forall ((x (_ BitVec 8))) (= (bvand x x) x)))
(assert (forall ((x (_ BitVec 8))) (= (bvor x x) x)))
(assert (forall ((x (_ BitVec 8))) (= (bvxor x #x00) x)))
(assert (forall ((x (_ BitVec 8))) (= (bvnot x) (bvsub (bvneg x) #x01))))
(assert (forall ((x (_ BitVec 8)) (y (_ BitVec 8)))
  (= (bvshl x y) (bvmul x (bvshl #x01 y)))))
(assert (forall ((x (_ BitVec 8))) (= (bvsub x #x00) x)))
(assert (forall ((x (_ BitVec 8))) (= (bvsub #x00 x) (bvneg x))))
(assert (forall ((x (_ BitVec 8)) (y (_ BitVec 8))) (= (bvadd x (bvneg y)) (bvsub x y))))
(assert (forall ((x (_ BitVec 8)) (y (_ BitVec 8))) (= (bvsub x (bvneg y)) (bvadd x y))))
(assert (forall ((x (_ BitVec 8))) (= (bvand x #xff) x)))
(assert (forall ((x (_ BitVec 8))) (= (bvor x #x00) x)))
(assert (forall ((x (_ BitVec 8))) (= (bvxor x #x00) x)))
(assert (forall ((x (_ BitVec 8)) (y (_ BitVec 8)) (z (_ BitVec 8)))
  (= (bvand x (bvor y z)) (bvor (bvand x y) (bvand x z)))))
(assert (forall ((x (_ BitVec 8)) (y (_ BitVec 8)) (z (_ BitVec 8)))
  (= (bvor x (bvand y z)) (bvand (bvor x y) (bvor x z)))))
(assert (forall ((x (_ BitVec 8)) (y (_ BitVec 8))) (= (bvand x (bvor x y)) x)))
(assert (forall ((x (_ BitVec 8)) (y (_ BitVec 8))) (= (bvor x (bvand x y)) x)))
(assert (forall ((x (_ BitVec 8))) (= (bvshl x #x00) x)))
(assert (forall ((x (_ BitVec 8))) (= (bvlshr x #x00) x)))
(assert (forall ((y (_ BitVec 8))) (= #x00 (bvshl #x00 y))))
(assert (forall ((y (_ BitVec 8))) (= #x00 (bvlshr #x00 y))))
(assert (forall ((x (_ BitVec 8)) (y (_ BitVec 8)))
  (= (bvor (bvand x y) (bvand x (bvnot y))) x)))
(assert (forall ((x (_ BitVec 8)) (y (_ BitVec 8)) (z (_ BitVec 8)))
  (= (bvshl (bvand x y) z) (bvand (bvshl x z) (bvshl y z)))))
(assert (forall ((x (_ BitVec 8)) (y (_ BitVec 8)) (z (_ BitVec 8)))
  (= (bvlshr (bvand x y) z) (bvand (bvlshr x z) (bvlshr y z)))))
